c *********************************
c * Circuit generated by BenCGen
c *
c * Parity_245
c *
c * Ports with 1 gate(s): 1
c * Ports with 2 gate(s): 245
c * Total gates: 246
c *********************************
p cnf 491 981
1 248 0
-1 -248 0
1 -247 0
248 -247 0
-1 -248 247 0
1 2 -249 0
-1 2 249 0
1 -2 249 0
-1 -2 -249 0
3 4 -250 0
-3 4 250 0
3 -4 250 0
-3 -4 -250 0
5 6 -251 0
-5 6 251 0
5 -6 251 0
-5 -6 -251 0
7 8 -252 0
-7 8 252 0
7 -8 252 0
-7 -8 -252 0
9 10 -253 0
-9 10 253 0
9 -10 253 0
-9 -10 -253 0
11 12 -254 0
-11 12 254 0
11 -12 254 0
-11 -12 -254 0
13 14 -255 0
-13 14 255 0
13 -14 255 0
-13 -14 -255 0
15 16 -256 0
-15 16 256 0
15 -16 256 0
-15 -16 -256 0
17 18 -257 0
-17 18 257 0
17 -18 257 0
-17 -18 -257 0
19 20 -258 0
-19 20 258 0
19 -20 258 0
-19 -20 -258 0
21 22 -259 0
-21 22 259 0
21 -22 259 0
-21 -22 -259 0
23 24 -260 0
-23 24 260 0
23 -24 260 0
-23 -24 -260 0
25 26 -261 0
-25 26 261 0
25 -26 261 0
-25 -26 -261 0
27 28 -262 0
-27 28 262 0
27 -28 262 0
-27 -28 -262 0
29 30 -263 0
-29 30 263 0
29 -30 263 0
-29 -30 -263 0
31 32 -264 0
-31 32 264 0
31 -32 264 0
-31 -32 -264 0
33 34 -265 0
-33 34 265 0
33 -34 265 0
-33 -34 -265 0
35 36 -266 0
-35 36 266 0
35 -36 266 0
-35 -36 -266 0
37 38 -267 0
-37 38 267 0
37 -38 267 0
-37 -38 -267 0
39 40 -268 0
-39 40 268 0
39 -40 268 0
-39 -40 -268 0
41 42 -269 0
-41 42 269 0
41 -42 269 0
-41 -42 -269 0
43 44 -270 0
-43 44 270 0
43 -44 270 0
-43 -44 -270 0
45 46 -271 0
-45 46 271 0
45 -46 271 0
-45 -46 -271 0
47 48 -272 0
-47 48 272 0
47 -48 272 0
-47 -48 -272 0
49 50 -273 0
-49 50 273 0
49 -50 273 0
-49 -50 -273 0
51 52 -274 0
-51 52 274 0
51 -52 274 0
-51 -52 -274 0
53 54 -275 0
-53 54 275 0
53 -54 275 0
-53 -54 -275 0
55 56 -276 0
-55 56 276 0
55 -56 276 0
-55 -56 -276 0
57 58 -277 0
-57 58 277 0
57 -58 277 0
-57 -58 -277 0
59 60 -278 0
-59 60 278 0
59 -60 278 0
-59 -60 -278 0
61 62 -279 0
-61 62 279 0
61 -62 279 0
-61 -62 -279 0
63 64 -280 0
-63 64 280 0
63 -64 280 0
-63 -64 -280 0
65 66 -281 0
-65 66 281 0
65 -66 281 0
-65 -66 -281 0
67 68 -282 0
-67 68 282 0
67 -68 282 0
-67 -68 -282 0
69 70 -283 0
-69 70 283 0
69 -70 283 0
-69 -70 -283 0
71 72 -284 0
-71 72 284 0
71 -72 284 0
-71 -72 -284 0
73 74 -285 0
-73 74 285 0
73 -74 285 0
-73 -74 -285 0
75 76 -286 0
-75 76 286 0
75 -76 286 0
-75 -76 -286 0
77 78 -287 0
-77 78 287 0
77 -78 287 0
-77 -78 -287 0
79 80 -288 0
-79 80 288 0
79 -80 288 0
-79 -80 -288 0
81 82 -289 0
-81 82 289 0
81 -82 289 0
-81 -82 -289 0
83 84 -290 0
-83 84 290 0
83 -84 290 0
-83 -84 -290 0
85 86 -291 0
-85 86 291 0
85 -86 291 0
-85 -86 -291 0
87 88 -292 0
-87 88 292 0
87 -88 292 0
-87 -88 -292 0
89 90 -293 0
-89 90 293 0
89 -90 293 0
-89 -90 -293 0
91 92 -294 0
-91 92 294 0
91 -92 294 0
-91 -92 -294 0
93 94 -295 0
-93 94 295 0
93 -94 295 0
-93 -94 -295 0
95 96 -296 0
-95 96 296 0
95 -96 296 0
-95 -96 -296 0
97 98 -297 0
-97 98 297 0
97 -98 297 0
-97 -98 -297 0
99 100 -298 0
-99 100 298 0
99 -100 298 0
-99 -100 -298 0
101 102 -299 0
-101 102 299 0
101 -102 299 0
-101 -102 -299 0
103 104 -300 0
-103 104 300 0
103 -104 300 0
-103 -104 -300 0
105 106 -301 0
-105 106 301 0
105 -106 301 0
-105 -106 -301 0
107 108 -302 0
-107 108 302 0
107 -108 302 0
-107 -108 -302 0
109 110 -303 0
-109 110 303 0
109 -110 303 0
-109 -110 -303 0
111 112 -304 0
-111 112 304 0
111 -112 304 0
-111 -112 -304 0
113 114 -305 0
-113 114 305 0
113 -114 305 0
-113 -114 -305 0
115 116 -306 0
-115 116 306 0
115 -116 306 0
-115 -116 -306 0
117 118 -307 0
-117 118 307 0
117 -118 307 0
-117 -118 -307 0
119 120 -308 0
-119 120 308 0
119 -120 308 0
-119 -120 -308 0
121 122 -309 0
-121 122 309 0
121 -122 309 0
-121 -122 -309 0
123 124 -310 0
-123 124 310 0
123 -124 310 0
-123 -124 -310 0
125 126 -311 0
-125 126 311 0
125 -126 311 0
-125 -126 -311 0
127 128 -312 0
-127 128 312 0
127 -128 312 0
-127 -128 -312 0
129 130 -313 0
-129 130 313 0
129 -130 313 0
-129 -130 -313 0
131 132 -314 0
-131 132 314 0
131 -132 314 0
-131 -132 -314 0
133 134 -315 0
-133 134 315 0
133 -134 315 0
-133 -134 -315 0
135 136 -316 0
-135 136 316 0
135 -136 316 0
-135 -136 -316 0
137 138 -317 0
-137 138 317 0
137 -138 317 0
-137 -138 -317 0
139 140 -318 0
-139 140 318 0
139 -140 318 0
-139 -140 -318 0
141 142 -319 0
-141 142 319 0
141 -142 319 0
-141 -142 -319 0
143 144 -320 0
-143 144 320 0
143 -144 320 0
-143 -144 -320 0
145 146 -321 0
-145 146 321 0
145 -146 321 0
-145 -146 -321 0
147 148 -322 0
-147 148 322 0
147 -148 322 0
-147 -148 -322 0
149 150 -323 0
-149 150 323 0
149 -150 323 0
-149 -150 -323 0
151 152 -324 0
-151 152 324 0
151 -152 324 0
-151 -152 -324 0
153 154 -325 0
-153 154 325 0
153 -154 325 0
-153 -154 -325 0
155 156 -326 0
-155 156 326 0
155 -156 326 0
-155 -156 -326 0
157 158 -327 0
-157 158 327 0
157 -158 327 0
-157 -158 -327 0
159 160 -328 0
-159 160 328 0
159 -160 328 0
-159 -160 -328 0
161 162 -329 0
-161 162 329 0
161 -162 329 0
-161 -162 -329 0
163 164 -330 0
-163 164 330 0
163 -164 330 0
-163 -164 -330 0
165 166 -331 0
-165 166 331 0
165 -166 331 0
-165 -166 -331 0
167 168 -332 0
-167 168 332 0
167 -168 332 0
-167 -168 -332 0
169 170 -333 0
-169 170 333 0
169 -170 333 0
-169 -170 -333 0
171 172 -334 0
-171 172 334 0
171 -172 334 0
-171 -172 -334 0
173 174 -335 0
-173 174 335 0
173 -174 335 0
-173 -174 -335 0
175 176 -336 0
-175 176 336 0
175 -176 336 0
-175 -176 -336 0
177 178 -337 0
-177 178 337 0
177 -178 337 0
-177 -178 -337 0
179 180 -338 0
-179 180 338 0
179 -180 338 0
-179 -180 -338 0
181 182 -339 0
-181 182 339 0
181 -182 339 0
-181 -182 -339 0
183 184 -340 0
-183 184 340 0
183 -184 340 0
-183 -184 -340 0
185 186 -341 0
-185 186 341 0
185 -186 341 0
-185 -186 -341 0
187 188 -342 0
-187 188 342 0
187 -188 342 0
-187 -188 -342 0
189 190 -343 0
-189 190 343 0
189 -190 343 0
-189 -190 -343 0
191 192 -344 0
-191 192 344 0
191 -192 344 0
-191 -192 -344 0
193 194 -345 0
-193 194 345 0
193 -194 345 0
-193 -194 -345 0
195 196 -346 0
-195 196 346 0
195 -196 346 0
-195 -196 -346 0
197 198 -347 0
-197 198 347 0
197 -198 347 0
-197 -198 -347 0
199 200 -348 0
-199 200 348 0
199 -200 348 0
-199 -200 -348 0
201 202 -349 0
-201 202 349 0
201 -202 349 0
-201 -202 -349 0
203 204 -350 0
-203 204 350 0
203 -204 350 0
-203 -204 -350 0
205 206 -351 0
-205 206 351 0
205 -206 351 0
-205 -206 -351 0
207 208 -352 0
-207 208 352 0
207 -208 352 0
-207 -208 -352 0
209 210 -353 0
-209 210 353 0
209 -210 353 0
-209 -210 -353 0
211 212 -354 0
-211 212 354 0
211 -212 354 0
-211 -212 -354 0
213 214 -355 0
-213 214 355 0
213 -214 355 0
-213 -214 -355 0
215 216 -356 0
-215 216 356 0
215 -216 356 0
-215 -216 -356 0
217 218 -357 0
-217 218 357 0
217 -218 357 0
-217 -218 -357 0
219 220 -358 0
-219 220 358 0
219 -220 358 0
-219 -220 -358 0
221 222 -359 0
-221 222 359 0
221 -222 359 0
-221 -222 -359 0
223 224 -360 0
-223 224 360 0
223 -224 360 0
-223 -224 -360 0
225 226 -361 0
-225 226 361 0
225 -226 361 0
-225 -226 -361 0
227 228 -362 0
-227 228 362 0
227 -228 362 0
-227 -228 -362 0
229 230 -363 0
-229 230 363 0
229 -230 363 0
-229 -230 -363 0
231 232 -364 0
-231 232 364 0
231 -232 364 0
-231 -232 -364 0
233 234 -365 0
-233 234 365 0
233 -234 365 0
-233 -234 -365 0
235 236 -366 0
-235 236 366 0
235 -236 366 0
-235 -236 -366 0
237 238 -367 0
-237 238 367 0
237 -238 367 0
-237 -238 -367 0
239 240 -368 0
-239 240 368 0
239 -240 368 0
-239 -240 -368 0
241 242 -369 0
-241 242 369 0
241 -242 369 0
-241 -242 -369 0
243 244 -370 0
-243 244 370 0
243 -244 370 0
-243 -244 -370 0
249 250 -371 0
-249 250 371 0
249 -250 371 0
-249 -250 -371 0
251 252 -372 0
-251 252 372 0
251 -252 372 0
-251 -252 -372 0
253 254 -373 0
-253 254 373 0
253 -254 373 0
-253 -254 -373 0
255 256 -374 0
-255 256 374 0
255 -256 374 0
-255 -256 -374 0
257 258 -375 0
-257 258 375 0
257 -258 375 0
-257 -258 -375 0
259 260 -376 0
-259 260 376 0
259 -260 376 0
-259 -260 -376 0
261 262 -377 0
-261 262 377 0
261 -262 377 0
-261 -262 -377 0
263 264 -378 0
-263 264 378 0
263 -264 378 0
-263 -264 -378 0
265 266 -379 0
-265 266 379 0
265 -266 379 0
-265 -266 -379 0
267 268 -380 0
-267 268 380 0
267 -268 380 0
-267 -268 -380 0
269 270 -381 0
-269 270 381 0
269 -270 381 0
-269 -270 -381 0
271 272 -382 0
-271 272 382 0
271 -272 382 0
-271 -272 -382 0
273 274 -383 0
-273 274 383 0
273 -274 383 0
-273 -274 -383 0
275 276 -384 0
-275 276 384 0
275 -276 384 0
-275 -276 -384 0
277 278 -385 0
-277 278 385 0
277 -278 385 0
-277 -278 -385 0
279 280 -386 0
-279 280 386 0
279 -280 386 0
-279 -280 -386 0
281 282 -387 0
-281 282 387 0
281 -282 387 0
-281 -282 -387 0
283 284 -388 0
-283 284 388 0
283 -284 388 0
-283 -284 -388 0
285 286 -389 0
-285 286 389 0
285 -286 389 0
-285 -286 -389 0
287 288 -390 0
-287 288 390 0
287 -288 390 0
-287 -288 -390 0
289 290 -391 0
-289 290 391 0
289 -290 391 0
-289 -290 -391 0
291 292 -392 0
-291 292 392 0
291 -292 392 0
-291 -292 -392 0
293 294 -393 0
-293 294 393 0
293 -294 393 0
-293 -294 -393 0
295 296 -394 0
-295 296 394 0
295 -296 394 0
-295 -296 -394 0
297 298 -395 0
-297 298 395 0
297 -298 395 0
-297 -298 -395 0
299 300 -396 0
-299 300 396 0
299 -300 396 0
-299 -300 -396 0
301 302 -397 0
-301 302 397 0
301 -302 397 0
-301 -302 -397 0
303 304 -398 0
-303 304 398 0
303 -304 398 0
-303 -304 -398 0
305 306 -399 0
-305 306 399 0
305 -306 399 0
-305 -306 -399 0
307 308 -400 0
-307 308 400 0
307 -308 400 0
-307 -308 -400 0
309 310 -401 0
-309 310 401 0
309 -310 401 0
-309 -310 -401 0
311 312 -402 0
-311 312 402 0
311 -312 402 0
-311 -312 -402 0
313 314 -403 0
-313 314 403 0
313 -314 403 0
-313 -314 -403 0
315 316 -404 0
-315 316 404 0
315 -316 404 0
-315 -316 -404 0
317 318 -405 0
-317 318 405 0
317 -318 405 0
-317 -318 -405 0
319 320 -406 0
-319 320 406 0
319 -320 406 0
-319 -320 -406 0
321 322 -407 0
-321 322 407 0
321 -322 407 0
-321 -322 -407 0
323 324 -408 0
-323 324 408 0
323 -324 408 0
-323 -324 -408 0
325 326 -409 0
-325 326 409 0
325 -326 409 0
-325 -326 -409 0
327 328 -410 0
-327 328 410 0
327 -328 410 0
-327 -328 -410 0
329 330 -411 0
-329 330 411 0
329 -330 411 0
-329 -330 -411 0
331 332 -412 0
-331 332 412 0
331 -332 412 0
-331 -332 -412 0
333 334 -413 0
-333 334 413 0
333 -334 413 0
-333 -334 -413 0
335 336 -414 0
-335 336 414 0
335 -336 414 0
-335 -336 -414 0
337 338 -415 0
-337 338 415 0
337 -338 415 0
-337 -338 -415 0
339 340 -416 0
-339 340 416 0
339 -340 416 0
-339 -340 -416 0
341 342 -417 0
-341 342 417 0
341 -342 417 0
-341 -342 -417 0
343 344 -418 0
-343 344 418 0
343 -344 418 0
-343 -344 -418 0
345 346 -419 0
-345 346 419 0
345 -346 419 0
-345 -346 -419 0
347 348 -420 0
-347 348 420 0
347 -348 420 0
-347 -348 -420 0
349 350 -421 0
-349 350 421 0
349 -350 421 0
-349 -350 -421 0
351 352 -422 0
-351 352 422 0
351 -352 422 0
-351 -352 -422 0
353 354 -423 0
-353 354 423 0
353 -354 423 0
-353 -354 -423 0
355 356 -424 0
-355 356 424 0
355 -356 424 0
-355 -356 -424 0
357 358 -425 0
-357 358 425 0
357 -358 425 0
-357 -358 -425 0
359 360 -426 0
-359 360 426 0
359 -360 426 0
-359 -360 -426 0
361 362 -427 0
-361 362 427 0
361 -362 427 0
-361 -362 -427 0
363 364 -428 0
-363 364 428 0
363 -364 428 0
-363 -364 -428 0
365 366 -429 0
-365 366 429 0
365 -366 429 0
-365 -366 -429 0
367 368 -430 0
-367 368 430 0
367 -368 430 0
-367 -368 -430 0
369 370 -431 0
-369 370 431 0
369 -370 431 0
-369 -370 -431 0
371 372 -432 0
-371 372 432 0
371 -372 432 0
-371 -372 -432 0
373 374 -433 0
-373 374 433 0
373 -374 433 0
-373 -374 -433 0
375 376 -434 0
-375 376 434 0
375 -376 434 0
-375 -376 -434 0
377 378 -435 0
-377 378 435 0
377 -378 435 0
-377 -378 -435 0
379 380 -436 0
-379 380 436 0
379 -380 436 0
-379 -380 -436 0
381 382 -437 0
-381 382 437 0
381 -382 437 0
-381 -382 -437 0
383 384 -438 0
-383 384 438 0
383 -384 438 0
-383 -384 -438 0
385 386 -439 0
-385 386 439 0
385 -386 439 0
-385 -386 -439 0
387 388 -440 0
-387 388 440 0
387 -388 440 0
-387 -388 -440 0
389 390 -441 0
-389 390 441 0
389 -390 441 0
-389 -390 -441 0
391 392 -442 0
-391 392 442 0
391 -392 442 0
-391 -392 -442 0
393 394 -443 0
-393 394 443 0
393 -394 443 0
-393 -394 -443 0
395 396 -444 0
-395 396 444 0
395 -396 444 0
-395 -396 -444 0
397 398 -445 0
-397 398 445 0
397 -398 445 0
-397 -398 -445 0
399 400 -446 0
-399 400 446 0
399 -400 446 0
-399 -400 -446 0
401 402 -447 0
-401 402 447 0
401 -402 447 0
-401 -402 -447 0
403 404 -448 0
-403 404 448 0
403 -404 448 0
-403 -404 -448 0
405 406 -449 0
-405 406 449 0
405 -406 449 0
-405 -406 -449 0
407 408 -450 0
-407 408 450 0
407 -408 450 0
-407 -408 -450 0
409 410 -451 0
-409 410 451 0
409 -410 451 0
-409 -410 -451 0
411 412 -452 0
-411 412 452 0
411 -412 452 0
-411 -412 -452 0
413 414 -453 0
-413 414 453 0
413 -414 453 0
-413 -414 -453 0
415 416 -454 0
-415 416 454 0
415 -416 454 0
-415 -416 -454 0
417 418 -455 0
-417 418 455 0
417 -418 455 0
-417 -418 -455 0
419 420 -456 0
-419 420 456 0
419 -420 456 0
-419 -420 -456 0
421 422 -457 0
-421 422 457 0
421 -422 457 0
-421 -422 -457 0
423 424 -458 0
-423 424 458 0
423 -424 458 0
-423 -424 -458 0
425 426 -459 0
-425 426 459 0
425 -426 459 0
-425 -426 -459 0
427 428 -460 0
-427 428 460 0
427 -428 460 0
-427 -428 -460 0
429 430 -461 0
-429 430 461 0
429 -430 461 0
-429 -430 -461 0
431 245 -462 0
-431 245 462 0
431 -245 462 0
-431 -245 -462 0
432 433 -463 0
-432 433 463 0
432 -433 463 0
-432 -433 -463 0
434 435 -464 0
-434 435 464 0
434 -435 464 0
-434 -435 -464 0
436 437 -465 0
-436 437 465 0
436 -437 465 0
-436 -437 -465 0
438 439 -466 0
-438 439 466 0
438 -439 466 0
-438 -439 -466 0
440 441 -467 0
-440 441 467 0
440 -441 467 0
-440 -441 -467 0
442 443 -468 0
-442 443 468 0
442 -443 468 0
-442 -443 -468 0
444 445 -469 0
-444 445 469 0
444 -445 469 0
-444 -445 -469 0
446 447 -470 0
-446 447 470 0
446 -447 470 0
-446 -447 -470 0
448 449 -471 0
-448 449 471 0
448 -449 471 0
-448 -449 -471 0
450 451 -472 0
-450 451 472 0
450 -451 472 0
-450 -451 -472 0
452 453 -473 0
-452 453 473 0
452 -453 473 0
-452 -453 -473 0
454 455 -474 0
-454 455 474 0
454 -455 474 0
-454 -455 -474 0
456 457 -475 0
-456 457 475 0
456 -457 475 0
-456 -457 -475 0
458 459 -476 0
-458 459 476 0
458 -459 476 0
-458 -459 -476 0
460 461 -477 0
-460 461 477 0
460 -461 477 0
-460 -461 -477 0
463 464 -478 0
-463 464 478 0
463 -464 478 0
-463 -464 -478 0
465 466 -479 0
-465 466 479 0
465 -466 479 0
-465 -466 -479 0
467 468 -480 0
-467 468 480 0
467 -468 480 0
-467 -468 -480 0
469 470 -481 0
-469 470 481 0
469 -470 481 0
-469 -470 -481 0
471 472 -482 0
-471 472 482 0
471 -472 482 0
-471 -472 -482 0
473 474 -483 0
-473 474 483 0
473 -474 483 0
-473 -474 -483 0
475 476 -484 0
-475 476 484 0
475 -476 484 0
-475 -476 -484 0
477 462 -485 0
-477 462 485 0
477 -462 485 0
-477 -462 -485 0
478 479 -486 0
-478 479 486 0
478 -479 486 0
-478 -479 -486 0
480 481 -487 0
-480 481 487 0
480 -481 487 0
-480 -481 -487 0
482 483 -488 0
-482 483 488 0
482 -483 488 0
-482 -483 -488 0
484 485 -489 0
-484 485 489 0
484 -485 489 0
-484 -485 -489 0
486 487 -490 0
-486 487 490 0
486 -487 490 0
-486 -487 -490 0
488 489 -491 0
-488 489 491 0
488 -489 491 0
-488 -489 -491 0
490 491 -246 0
-490 491 246 0
490 -491 246 0
-490 -491 -246 0
